38 
300 
4.6 7.1 0 0
5 5.6 0 -21
5.7 11.4 -20 -117
4.4 12.3 -20 -103
2.8 14.3 30 -22
3.2 10.3 15 -25
3.5 9.8 15 -15
4.4 8.4 -10 -96
7.8 11 20 -15
8.8 9.8 -20 -95
7.7 8.2 -20 -127
6.3 7.9 -15 -92
5.4 8.2 -10 -111
5.8 6.8 -10 -83
6.7 5.8 25 -24
13.8 13.1 -40 -93
14.1 14.2 -40 -125
11.2 13.6 -30 -118
9.7 16.4 -30 -97
9.5 18.8 -50 -125
4.7 16.8 30 -15
